33235
1 0 0 0 0 0 0 0 0 1 0 1 0 1 1 0 0 1 0 0 1 0 0 0 1 0 0 0 0 0 
20 11 20 11 20 11 11 11 20 11 11 20 20 20 11 20 11 11 11 11 11 11 11 11 11 20 11 24 24 24 24 24 20 24 20 20 24 24 24 20 11 20 24 20 24 20 24 20 24 20 24 20 20 24 24 13 17 17 17 17 17 24 17 17 17 17 24 17 24 24 13 13 17 17 17 13 17 13 17 17 13 17 13 17 17 17 17 13 13 13 13 9 9 9 9 9 13 13 9 13 13 9 14 14 14 9 14 14 14 14 14 14 14 14 14 9 9 9 9 9 14 13 14 13 13 14 9 9 14 9 0 0 9 9 14 14 0 0 13 0 0 14 14 0 0 0 0 0 0 0 
